# Random Circle Problem
param d := 0.05; 
param n := 10; 
param radius := 2.00; 
param v0 := 
1 5.23
2 5.55
3 5.24
4 4.93
5 5.46
6 5.60
7 5.26
8 5.44
9 5.33
10 5.09
;
param cap := 
1 3.45399
2 3.57568
3 4.76379
4 5.47593
5 6.15258
6 5.96016
7 0.75183
8 1.64593
9 1.73716
10 2.65749
;
param x0 := 
1 2.00
2 1.62
3 0.62
4 -0.62
5 -1.62
6 -2.00
7 -1.62
8 -0.62
9 0.62
10 1.62
;
param y0 := 
1 -0.00
2 1.18
3 1.90
4 1.90
5 1.18
6 0.00
7 -1.18
8 -1.90
9 -1.90
10 -1.18
;
